(set-logic HORN)
(set-info :source |
    Benchmark: C_VC
    Output by Princess (http://www.philipp.ruemmer.org/princess.shtml)
|)
(set-info :status sat)
(declare-fun inv_main306 (Int Int Int Int Int Int Int Int Int Int Int Int Int Int Int Int Int Int Int Int Int Int Int Int Int Int Int Int Int Int Int Int Int Int Int Int Int Int Int Int) Bool)
(declare-fun inv_main6 (Int Int Int Int) Bool)
(assert (forall ((var0 Int) (var1 Int) (var2 Int)) (inv_main6 var2 0 var1 var0)))
(assert (forall ((var0 Int) (var1 Int) (var2 Int) (var3 Int) (var4 Int) (var5 Int) (var6 Int) (var7 Int) (var8 Int) (var9 Int) (var10 Int) (var11 Int) (var12 Int) (var13 Int) (var14 Int) (var15 Int) (var16 Int) (var17 Int) (var18 Int) (var19 Int) (var20 Int) (var21 Int) (var22 Int) (var23 Int) (var24 Int) (var25 Int) (var26 Int) (var27 Int) (var28 Int) (var29 Int) (var30 Int) (var31 Int) (var32 Int) (var33 Int) (var34 Int) (var35 Int) (var36 Int) (var37 Int) (var38 Int) (var39 Int)) (or (not (and (inv_main6 var39 var38 var37 var36) (and (and (and (and (and (and (and (and (and (and (and (and (and (and (and (and (and (and (and (and (and (and (and (and (and (and (and (and (and (and (and (and (and (and (and (and (and (= var35 var34) (and (= var33 var32) (and (= var31 var30) (and (= var29 var28) (and (= var27 var26) (and (not (= var35 var31)) (and (not (= var33 var25)) (and (not (= var24 var23)) (and (not (= var22 var21)) (and (not (= var20 var19)) (and (not (= var18 var21)) (and (not (= var18 var22)) (and (not (= var17 var16)) (and (not (= var15 var14)) (and (not (= var13 var16)) (and (not (= var12 var11)) (and (not (= var10 var9)) (and (not (= var29 var35)) (and (not (= var29 var33)) (and (not (= var29 var31)) (and (not (= var29 var25)) (and (not (= var27 var35)) (and (not (= var27 var31)) (and (not (= var27 var29)) (and (not (= var11 var8)) (and (not (= var7 var13)) (and (not (= var6 var8)) (and (not (= var6 var11)) (and (not (= var9 var5)) (and (not (= var4 var10)) (and (not (= var4 var9)) (and (not (= var3 var12)) (and (not (= var3 var8)) (and (not (= var3 var6)) (and (not (= var2 var17)) (and (<= 0 (+ (* (- 1) (* (+ var35 (* (- 1) var33)) (+ var33 (* (- 1) var35)))) (- 1))) (and (<= 0 (+ (* (- 1) (* (+ var35 (* (- 1) var25)) (+ var25 (* (- 1) var35)))) (- 1))) (and (<= 0 (+ (* (- 1) (* (+ var33 (* (- 1) var31)) (+ var31 (* (- 1) var33)))) (- 1))) (and (<= 0 (+ (* (- 1) (* (+ var31 (* (- 1) var25)) (+ var25 (* (- 1) var31)))) (- 1))) (and (<= 0 (+ (* (- 1) (* (+ var24 (* (- 1) var21)) (+ var21 (* (- 1) var24)))) (- 1))) (and (<= 0 (+ (* (- 1) (* (+ var24 (* (- 1) var22)) (+ var22 (* (- 1) var24)))) (- 1))) (and (<= 0 (+ (* (- 1) (* (+ var1 (* (- 1) var5)) (+ var5 (* (- 1) var1)))) (- 1))) (and (<= 0 (+ (* (- 1) (* (+ var1 (* (- 1) var9)) (+ var9 (* (- 1) var1)))) (- 1))) (and (<= 0 (+ (* (- 1) (* (+ var22 (* (- 1) var23)) (+ var23 (* (- 1) var22)))) (- 1))) (and (<= 0 (+ (* (- 1) (* (+ var14 (* (- 1) var20)) (+ var20 (* (- 1) var14)))) (- 1))) (and (<= 0 (+ (* (- 1) (* (+ var14 (* (- 1) var19)) (+ var19 (* (- 1) var14)))) (- 1))) (and (<= 0 (+ (* (- 1) (* (+ var18 (* (- 1) var24)) (+ var24 (* (- 1) var18)))) (- 1))) (and (<= 0 (+ (* (- 1) (* (+ var18 (* (- 1) var23)) (+ var23 (* (- 1) var18)))) (- 1))) (and (<= 0 (+ (* (- 1) (* (+ var15 (* (- 1) var20)) (+ var20 (* (- 1) var15)))) (- 1))) (and (<= 0 (+ (* (- 1) (* (+ var15 (* (- 1) var19)) (+ var19 (* (- 1) var15)))) (- 1))) (and (<= 0 (+ (* (- 1) (* (+ var13 (* (- 1) var17)) (+ var17 (* (- 1) var13)))) (- 1))) (and (<= 0 (+ (* (- 1) (* (+ var13 (* (- 1) var2)) (+ var2 (* (- 1) var13)))) (- 1))) (and (<= 0 (+ (* (- 1) (* (+ var0 (* (- 1) var20)) (+ var20 (* (- 1) var0)))) (- 1))) (and (<= 0 (+ (* (- 1) (* (+ var0 (* (- 1) var14)) (+ var14 (* (- 1) var0)))) (- 1))) (and (<= 0 (+ (* (- 1) (* (+ var0 (* (- 1) var15)) (+ var15 (* (- 1) var0)))) (- 1))) (and (<= 0 (+ (* (- 1) (* (+ var0 (* (- 1) var19)) (+ var19 (* (- 1) var0)))) (- 1))) (and (<= 0 (+ (* (- 1) (* (+ var12 (* (- 1) var8)) (+ var8 (* (- 1) var12)))) (- 1))) (and (<= 0 (+ (* (- 1) (* (+ var12 (* (- 1) var6)) (+ var6 (* (- 1) var12)))) (- 1))) (and (<= 0 (+ (* (- 1) (* (+ var23 (* (- 1) var21)) (+ var21 (* (- 1) var23)))) (- 1))) (and (<= 0 (+ (* (- 1) (* (+ var10 (* (- 1) var1)) (+ var1 (* (- 1) var10)))) (- 1))) (and (<= 0 (+ (* (- 1) (* (+ var10 (* (- 1) var5)) (+ var5 (* (- 1) var10)))) (- 1))) (and (<= 0 (+ (* (- 1) (* (+ var27 (* (- 1) var33)) (+ var33 (* (- 1) var27)))) (- 1))) (and (<= 0 (+ (* (- 1) (* (+ var27 (* (- 1) var25)) (+ var25 (* (- 1) var27)))) (- 1))) (and (<= 0 (+ (* (- 1) (* (+ var7 (* (- 1) var17)) (+ var17 (* (- 1) var7)))) (- 1))) (and (<= 0 (+ (* (- 1) (* (+ var7 (* (- 1) var2)) (+ var2 (* (- 1) var7)))) (- 1))) (and (<= 0 (+ (* (- 1) (* (+ var7 (* (- 1) var16)) (+ var16 (* (- 1) var7)))) (- 1))) (and (<= 0 (+ (* (- 1) (* (+ var4 (* (- 1) var1)) (+ var1 (* (- 1) var4)))) (- 1))) (and (<= 0 (+ (* (- 1) (* (+ var4 (* (- 1) var5)) (+ var5 (* (- 1) var4)))) (- 1))) (and (<= 0 (+ (* (- 1) (* (+ var3 (* (- 1) var11)) (+ var11 (* (- 1) var3)))) (- 1))) (and (<= 0 (+ (* (- 1) (* (+ var2 (* (- 1) var16)) (+ var16 (* (- 1) var2)))) (- 1))) (and (<= 0 (+ (+ var28 var12) (- 2))) (and (not (= var28 var12)) (and (<= 0 (+ (+ var28 var8) (- 2))) (and (not (= var28 var8)) (and (<= 0 (+ (+ var28 var11) (- 2))) (and (not (= var28 var11)) (and (<= 0 (+ (+ var28 var6) (- 2))) (and (not (= var28 var6)) (and (<= 0 (+ (+ var28 var3) (- 2))) (and (not (= var28 var3)) (and (<= 0 (+ (+ var30 var20) (- 2))) (and (not (= var30 var20)) (and (<= 0 (+ (+ var30 var14) (- 2))) (and (not (= var30 var14)) (and (<= 0 (+ (+ var30 var15) (- 2))) (and (not (= var30 var15)) (and (<= 0 (+ (+ var30 var0) (- 2))) (and (not (= var30 var0)) (and (<= 0 (+ (+ var30 var19) (- 2))) (and (not (= var30 var19)) (and (<= 0 (+ (+ var34 var21) (- 2))) (and (not (= var34 var21)) (and (<= 0 (+ (+ var34 var24) (- 2))) (and (not (= var34 var24)) (and (<= 0 (+ (+ var34 var22) (- 2))) (and (not (= var34 var22)) (and (<= 0 (+ (+ var34 var18) (- 2))) (and (not (= var34 var18)) (and (<= 0 (+ (+ var34 var23) (- 2))) (and (not (= var34 var23)) (and (<= 0 (+ (+ var32 var17) (- 2))) (and (not (= var32 var17)) (and (<= 0 (+ (+ var32 var13) (- 2))) (and (not (= var32 var13)) (and (<= 0 (+ (+ var32 var7) (- 2))) (and (not (= var32 var7)) (and (<= 0 (+ (+ var32 var2) (- 2))) (and (not (= var32 var2)) (and (<= 0 (+ (+ var32 var16) (- 2))) (and (not (= var32 var16)) (and (<= 0 (+ (+ var26 var1) (- 2))) (and (not (= var26 var1)) (and (<= 0 (+ (+ var26 var5) (- 2))) (and (not (= var26 var5)) (and (<= 0 (+ (+ var26 var10) (- 2))) (and (not (= var26 var10)) (and (<= 0 (+ (+ var26 var9) (- 2))) (and (not (= var26 var9)) (and (<= 0 (+ (+ var26 var4) (- 2))) (not (= var26 var4))))))))))))))))))))))))))))))))))))))))))))))))))))))))))))))))))))))))))))))))))))))))))))))))))))))))))))))))))))))))) (and (<= 0 (+ 5 (* (- 1) var24))) (<= 0 var24))) (and (<= 0 (+ 5 (* (- 1) var1))) (<= 0 var1))) (and (<= 0 (+ 5 (* (- 1) var22))) (<= 0 var22))) (and (<= 0 (+ 5 (* (- 1) var34))) (<= 0 var34))) (and (<= 0 (+ 5 (* (- 1) var5))) (<= 0 var5))) (and (<= 0 (+ 5 (* (- 1) var20))) (<= 0 var20))) (and (<= 0 (+ 5 (* (- 1) var18))) (<= 0 var18))) (and (<= 0 (+ 5 (* (- 1) var17))) (<= 0 var17))) (and (<= 0 (+ 5 (* (- 1) var15))) (<= 0 var15))) (and (<= 0 (+ 5 (* (- 1) var32))) (<= 0 var32))) (and (<= 0 (+ 5 (* (- 1) var13))) (<= 0 var13))) (and (<= 0 (+ 5 (* (- 1) var0))) (<= 0 var0))) (and (<= 0 (+ 5 (* (- 1) var12))) (<= 0 var12))) (and (<= 0 (+ 5 (* (- 1) var23))) (<= 0 var23))) (and (<= 0 (+ 5 (* (- 1) var10))) (<= 0 var10))) (and (<= 0 (+ 5 (* (- 1) var19))) (<= 0 var19))) (and (<= 0 (+ 5 (* (- 1) var27))) (<= 0 var27))) (and (<= 0 (+ 5 (* (- 1) var8))) (<= 0 var8))) (and (<= 0 (+ 5 (* (- 1) var11))) (<= 0 var11))) (and (<= 0 (+ 5 (* (- 1) var7))) (<= 0 var7))) (and (<= 0 (+ 5 (* (- 1) var6))) (<= 0 var6))) (and (<= 0 (+ 5 (* (- 1) var9))) (<= 0 var9))) (and (<= 0 (+ 5 (* (- 1) var4))) (<= 0 var4))) (and (<= 0 (+ 5 (* (- 1) var3))) (<= 0 var3))) (and (<= 0 (+ 5 (* (- 1) var2))) (<= 0 var2))) (and (<= 0 (+ 5 (* (- 1) var26))) (<= 0 var26))) (and (<= 0 (+ 5 (* (- 1) var35))) (<= 0 var35))) (and (<= 0 (+ 5 (* (- 1) var21))) (<= 0 var21))) (and (<= 0 (+ 5 (* (- 1) var33))) (<= 0 var33))) (and (<= 0 (+ 5 (* (- 1) var28))) (<= 0 var28))) (and (<= 0 (+ 5 (* (- 1) var31))) (<= 0 var31))) (and (<= 0 (+ 5 (* (- 1) var30))) (<= 0 var30))) (and (<= 0 (+ 5 (* (- 1) var14))) (<= 0 var14))) (and (<= 0 (+ 5 (* (- 1) var29))) (<= 0 var29))) (and (<= 0 (+ 5 (* (- 1) var25))) (<= 0 var25))) (and (<= 0 (+ 5 (* (- 1) var16))) (<= 0 var16))))) (inv_main306 var39 var38 var37 var16 var25 var29 var14 var30 var31 var28 var33 var21 var35 var26 var2 var3 var4 var9 var6 var7 var11 var8 var27 var19 var10 var23 var12 var0 var13 var32 var15 var17 var18 var20 var5 var34 var22 var1 var24 1))))
(assert (forall ((var0 Int) (var1 Int) (var2 Int) (var3 Int) (var4 Int) (var5 Int) (var6 Int) (var7 Int) (var8 Int) (var9 Int) (var10 Int) (var11 Int) (var12 Int) (var13 Int) (var14 Int) (var15 Int) (var16 Int) (var17 Int) (var18 Int) (var19 Int) (var20 Int) (var21 Int) (var22 Int) (var23 Int) (var24 Int) (var25 Int) (var26 Int) (var27 Int) (var28 Int) (var29 Int) (var30 Int) (var31 Int) (var32 Int) (var33 Int) (var34 Int) (var35 Int) (var36 Int) (var37 Int) (var38 Int) (var39 Int)) (not (inv_main306 var39 var38 var37 var36 var35 var34 var33 var32 var31 var30 var29 var28 var27 var26 var25 var24 var23 var22 var21 var20 var19 var18 var17 var16 var15 var14 var13 var12 var11 var10 var9 var8 var7 var6 var5 var4 var3 var2 var1 var0))))
(check-sat)
